% File represents an instance of a Composite Structure problem to be solved by a CP framework
% Created on 2025-03-26 10:41:14.928
T = 58;
n = 9;
m = 12;
edges = [(1, 2),
(5, 4),
(8, 7),
(3, 2),
(6, 5),
(9, 8),
(1, 4),
(4, 7),
(5, 2),
(5, 8),
(6, 3),
(6, 9)];
counts = [|12, 22, 12, 12,
|12, 20, 12, 8,
|12, 24, 12, 8,
|12, 18, 12, 10,
|12, 20, 12, 10,
|12, 24, 12, 10,
|12, 14, 12, 10,
|12, 18, 12, 10,
|12, 20, 12, 10|];
